Reading model...
...model read.
creating competitive generators file...
...competitive generators recorded.
Loading data...
.. real-time data read.
Compiling instance...
...instance created.
Creating Offer Mitigation (model will solve as dispatch if TRUE)...
NOTE: storage offers will not be mitigated
...storage offer mitigation file created
Converting model to MPEC...
...converted
NOTE: initial MIP solve with only storage competitive to get feasible solution
Solving...

Welcome to IBM(R) ILOG(R) CPLEX(R) Interactive Optimizer 12.9.0.0
  with Simplex, Mixed Integer & Barrier Optimizers
5725-A06 5725-A29 5724-Y48 5724-Y49 5724-Y54 5724-Y55 5655-Y21
Copyright IBM Corp. 1988, 2019.  All Rights Reserved.

Type 'help' for a list of available commands.
Type 'help' followed by a command name for more
information on commands.

CPLEX> Logfile 'cplex.log' closed.
Logfile 'C:\Users\llavin\Desktop\test826\logs\tmpgw6swaye.cplex.log' open.
CPLEX> New value for parallel optimization mode: -1
CPLEX> New value for mixed integer optimality gap tolerance: 0.01
CPLEX> New value for feasibility tolerance: 1e-09
CPLEX> New value for deterministic time limit in ticks: 150000
CPLEX> Problem 'C:\Users\llavin\Desktop\test826\logs\tmpu4u_yt5y.pyomo.lp' read.
Read time = 0.53 sec. (28.52 ticks)
CPLEX> Problem name         : C:\Users\llavin\Desktop\test826\logs\tmpu4u_yt5y.pyomo.lp
Objective sense      : Maximize
Variables            :  107781  [Nneg: 1,  Box: 44056,  Free: 8928,
                                 Binary: 54796]
Objective nonzeros   :   17377
Linear constraints   :  246901  [Less: 82866,  Greater: 118424,  Equal: 45611]
  Nonzeros           :  618077
  RHS nonzeros       :  134883

Variables            : Min LB: -5000.000        Max UB: 1000000.       
Objective nonzeros   : Min   : 0.01666667       Max   : 3000.000       
Linear constraints   :
  Nonzeros           : Min   : 0.01666667       Max   : 1000000.       
  RHS nonzeros       : Min   : 0.01666667       Max   : 1000000.       
CPLEX> CPXPARAM_Parallel                                -1
CPXPARAM_Simplex_Tolerances_Feasibility          1.0000000000000001e-09
CPXPARAM_DetTimeLimit                            150000
CPXPARAM_MIP_Tolerances_MIPGap                   0.01
Tried aggregator 3 times.
MIP Presolve eliminated 181363 rows and 41391 columns.
MIP Presolve added 6048 rows and 0 columns.
MIP Presolve modified 50545 coefficients.
Aggregator did 25814 substitutions.
Reduced MIP has 45772 rows, 38944 columns, and 152785 nonzeros.
Reduced MIP has 15313 binaries, 0 generals, 0 SOSs, and 0 indicators.
Presolve time = 0.66 sec. (375.57 ticks)
Probing fixed 730 vars, tightened 9419 bounds.
Probing time = 0.39 sec. (14.84 ticks)
Tried aggregator 2 times.
MIP Presolve eliminated 1654 rows and 1462 columns.
MIP Presolve modified 5332 coefficients.
Aggregator did 86 substitutions.
Reduced MIP has 44032 rows, 37396 columns, and 147757 nonzeros.
Reduced MIP has 14582 binaries, 0 generals, 0 SOSs, and 0 indicators.
Presolve time = 0.25 sec. (219.96 ticks)
Probing fixed 1 vars, tightened 598 bounds.
Probing time = 0.50 sec. (18.45 ticks)
Clique table members: 86031.
MIP emphasis: balance optimality and feasibility.
MIP search method: dynamic search.
Parallel mode: opportunistic, using up to 32 threads.
Root relaxation solution time = 1.25 sec. (1952.22 ticks)

        Nodes                                         Cuts/
   Node  Left     Objective  IInf  Best Integer    Best Bound    ItCnt     Gap

      0     0     1687.2510   384                   1687.2510    10793         
*     0+    0                         1687.2510     1687.2510             0.00%
      0     0        cutoff           1687.2510     1687.2510    10797    0.00%
Elapsed time = 4.83 sec. (3898.84 ticks, tree = 0.01 MB, solutions = 1)

Root node processing (before b&c):
  Real time             =    4.86 sec. (3902.51 ticks)
Parallel b&c, 32 threads:
  Real time             =    0.00 sec. (0.00 ticks)
  Sync time (average)   =    0.00 sec.
  Wait time (average)   =    0.00 sec.
                          ------------
Total (root+branch&cut) =    4.86 sec. (3902.51 ticks)

Solution pool: 1 solution saved.

MIP - Integer optimal solution:  Objective =  1.6872509695e+03
Solution time =    4.88 sec.  Iterations = 10797  Nodes = 0
Deterministic time = 3902.82 ticks  (800.58 ticks/sec)

CPLEX> Incumbent solution written to file 'C:\Users\llavin\Desktop\test826\logs\tmpjfat2g4u.cplex.sol'.
CPLEX> NOTE: no warmstart specified for MIP iteration, default behavior is true
NOTE: resolving with all competitive generators using storage-only solution to warmstart
Solving...

Welcome to IBM(R) ILOG(R) CPLEX(R) Interactive Optimizer 12.9.0.0
  with Simplex, Mixed Integer & Barrier Optimizers
5725-A06 5725-A29 5724-Y48 5724-Y49 5724-Y54 5724-Y55 5655-Y21
Copyright IBM Corp. 1988, 2019.  All Rights Reserved.

Type 'help' for a list of available commands.
Type 'help' followed by a command name for more
information on commands.

CPLEX> Logfile 'cplex.log' closed.
Logfile 'C:\Users\llavin\Desktop\test826\logs\tmpejllldz0.cplex.log' open.
CPLEX> New value for parallel optimization mode: -1
CPLEX> New value for mixed integer optimality gap tolerance: 0.01
CPLEX> New value for feasibility tolerance: 1e-09
CPLEX> New value for deterministic time limit in ticks: 150000
CPLEX> Problem 'C:\Users\llavin\Desktop\test826\logs\tmp34ptj3wj.pyomo.lp' read.
Read time = 0.53 sec. (28.56 ticks)
CPLEX> MIP start file 'C:\Users\llavin\Desktop\test826\logs\tmp2b6fxcd_.cplex.mst' read.
CPLEX> Problem name         : C:\Users\llavin\Desktop\test826\logs\tmp34ptj3wj.pyomo.lp
Objective sense      : Maximize
Variables            :  109221  [Nneg: 1,  Box: 45496,  Free: 8928,
                                 Binary: 54796]
Objective nonzeros   :   18769
Linear constraints   :  246901  [Less: 82866,  Greater: 118424,  Equal: 45611]
  Nonzeros           :  618077
  RHS nonzeros       :  134883

Variables            : Min LB: -5000.000        Max UB: 1000000.       
Objective nonzeros   : Min   : 0.01666667       Max   : 3000.000       
Linear constraints   :
  Nonzeros           : Min   : 0.01666667       Max   : 1000000.       
  RHS nonzeros       : Min   : 0.01666667       Max   : 1000000.       
CPLEX> CPXPARAM_Parallel                                -1
CPXPARAM_Simplex_Tolerances_Feasibility          1.0000000000000001e-09
CPXPARAM_DetTimeLimit                            150000
CPXPARAM_MIP_Tolerances_MIPGap                   0.01
Warning:  No solution found from 1 MIP starts.
Retaining values of one MIP start for possible repair.
Tried aggregator 3 times.
MIP Presolve eliminated 181363 rows and 42831 columns.
MIP Presolve added 6048 rows and 0 columns.
MIP Presolve modified 50545 coefficients.
Aggregator did 25814 substitutions.
Reduced MIP has 45772 rows, 38944 columns, and 152785 nonzeros.
Reduced MIP has 15313 binaries, 0 generals, 0 SOSs, and 0 indicators.
Presolve time = 0.64 sec. (376.29 ticks)
Probing fixed 730 vars, tightened 9419 bounds.
Probing time = 0.39 sec. (14.84 ticks)
Tried aggregator 2 times.
MIP Presolve eliminated 1654 rows and 1462 columns.
MIP Presolve modified 5332 coefficients.
Aggregator did 86 substitutions.
Reduced MIP has 44032 rows, 37396 columns, and 147757 nonzeros.
Reduced MIP has 14582 binaries, 0 generals, 0 SOSs, and 0 indicators.
Presolve time = 0.25 sec. (219.96 ticks)
Probing fixed 1 vars, tightened 598 bounds.
Probing time = 0.50 sec. (18.45 ticks)
Clique table members: 86031.
MIP emphasis: balance optimality and feasibility.
MIP search method: dynamic search.
Parallel mode: opportunistic, using up to 32 threads.
Root relaxation solution time = 1.33 sec. (2123.11 ticks)

        Nodes                                         Cuts/
   Node  Left     Objective  IInf  Best Integer    Best Bound    ItCnt     Gap

      0     0    33859.6315   515                  33859.6315    11954         
      0     0    33858.3784   149               Flowcuts: 192    12078         
      0     0    33857.7620   151                   Cuts: 105    12134         
      0     0    33857.7620   152                    Cuts: 54    12145         
Repair heuristic found nothing.
      0     2    33857.7620   152                    Cuts: 15    12145         
Elapsed time = 15.80 sec. (8690.05 ticks, tree = 0.02 MB, solutions = 1)
*    23+  115                        33464.4349    33852.0581             1.16%
    454   184    33842.6267   138    33464.4349    33852.0581    12922    1.16%
    766   297    33834.1395   126    33464.4349    33851.9435    13265    1.16%
   1300   145    33833.4821   116    33464.4349    33851.9435    12745    1.16%
   1903  1755    33832.0223   106    33464.4349    33851.9435    17509    1.16%
   2443  1669    33785.0674    93    33464.4349    33851.9435    17324    1.16%
   2845  1462    33790.4315   102    33464.4349    33851.9435    16594    1.16%
   3163  2498    33799.8517    86    33464.4349    33851.9435    22331    1.16%
   3515  2296    33752.2603    78    33464.4349    33851.9435    20826    1.16%
   4992  3512    33657.9900    47    33464.4349    33851.9435    30261    1.16%
Elapsed time = 35.58 sec. (11628.54 ticks, tree = 44.43 MB, solutions = 1)
   6271  5053    33647.0039    19    33464.4349    33851.9435    40922    1.16%
   6333  6243    33851.6965   179    33464.4349    33851.9435    64388    1.16%
   6551    64    33835.3598   175    33464.4349    33851.9435    64633    1.16%
   6837    79        cutoff          33464.4349    33851.9435    64781    1.16%
   7701   352    33830.0938   144    33464.4831    33851.9435    66002    1.16%
*  8046+  307                        33558.5447    33851.9435             0.87%
   8873   398    33822.5491   121    33558.5447    33851.9435    66173    0.87%
   9612   696    33784.5736   113    33558.5447    33851.9435    68383    0.87%

Clique cuts applied:  31
Cover cuts applied:  4
Implied bound cuts applied:  34
Flow cuts applied:  194
Zero-half cuts applied:  1
Gomory fractional cuts applied:  1

Root node processing (before b&c):
  Real time             =   11.42 sec. (8568.42 ticks)
Parallel b&c, 32 threads:
  Real time             =   70.11 sec. (16761.45 ticks)
  Sync time (average)   =    3.16 sec.
  Wait time (average)   =    0.28 sec.
                          ------------
Total (root+branch&cut) =   81.53 sec. (25329.86 ticks)

Solution pool: 3 solutions saved.

MIP - Integer optimal, tolerance (0.01/1e-06):  Objective =  3.3558544672e+04
Current MIP best bound =  3.3851943523e+04 (gap = 293.399, 0.87%)
Solution time =   81.56 sec.  Iterations = 83991  Nodes = 9708 (3097)
Deterministic time = 25330.18 ticks  (310.56 ticks/sec)

CPLEX> Incumbent solution written to file 'C:\Users\llavin\Desktop\test826\logs\tmpyte8z8f_.cplex.sol'.
CPLEX> Exporting results... 
